p edge 200 3235
n 1 166
n 2 161
n 3 148
n 4 147
n 5 67
n 6 95
n 7 140
n 8 45
n 9 135
n 10 143
n 11 44
n 12 125
n 13 137
n 14 19
n 15 171
n 16 54
n 17 139
n 18 123
n 19 112
n 20 196
n 21 6
n 22 164
n 23 70
n 24 91
n 25 5
n 26 10
n 27 71
n 28 134
n 29 145
n 30 154
n 31 55
n 32 153
n 33 167
n 34 108
n 35 195
n 36 43
n 37 122
n 38 200
n 39 83
n 40 58
n 41 52
n 42 4
n 43 99
n 44 184
n 45 183
n 46 47
n 47 114
n 48 63
n 49 49
n 50 62
n 51 124
n 52 150
n 53 133
n 54 66
n 55 14
n 56 56
n 57 12
n 58 130
n 59 96
n 60 120
n 61 20
n 62 38
n 63 29
n 64 87
n 65 27
n 66 174
n 67 111
n 68 59
n 69 34
n 70 7
n 71 165
n 72 110
n 73 182
n 74 13
n 75 118
n 76 113
n 77 160
n 78 188
n 79 104
n 80 179
n 81 158
n 82 64
n 83 80
n 84 115
n 85 92
n 86 100
n 87 172
n 88 33
n 89 198
n 90 157
n 91 1
n 92 57
n 93 142
n 94 17
n 95 36
n 96 116
n 97 180
n 98 50
n 99 176
n 100 190
n 101 74
n 102 94
n 103 132
n 104 3
n 105 60
n 106 24
n 107 2
n 108 126
n 109 151
n 110 129
n 111 73
n 112 103
n 113 159
n 114 41
n 115 89
n 116 168
n 117 119
n 118 175
n 119 193
n 120 68
n 121 102
n 122 177
n 123 72
n 124 128
n 125 136
n 126 18
n 127 107
n 128 106
n 129 30
n 130 141
n 131 199
n 132 185
n 133 75
n 134 61
n 135 138
n 136 65
n 137 37
n 138 93
n 139 169
n 140 85
n 141 51
n 142 189
n 143 121
n 144 181
n 145 69
n 146 144
n 147 192
n 148 101
n 149 127
n 150 81
n 151 163
n 152 117
n 153 76
n 154 46
n 155 35
n 156 162
n 157 9
n 158 84
n 159 78
n 160 131
n 161 25
n 162 8
n 163 16
n 164 26
n 165 155
n 166 194
n 167 187
n 168 31
n 169 149
n 170 22
n 171 97
n 172 86
n 173 178
n 174 186
n 175 15
n 176 32
n 177 39
n 178 40
n 179 21
n 180 146
n 181 98
n 182 173
n 183 23
n 184 77
n 185 170
n 186 156
n 187 109
n 188 152
n 189 28
n 190 82
n 191 53
n 192 79
n 193 90
n 194 197
n 195 42
n 196 105
n 197 88
n 198 191
n 199 11
n 200 48
e 1 3
e 1 4
e 1 6
e 1 19
e 1 25
e 1 33
e 1 40
e 1 42
e 1 44
e 1 45
e 1 58
e 1 67
e 1 68
e 1 71
e 1 76
e 1 91
e 1 92
e 1 102
e 1 104
e 1 110
e 1 114
e 1 132
e 1 133
e 1 138
e 1 153
e 1 160
e 1 169
e 1 170
e 1 177
e 1 178
e 1 179
e 1 183
e 1 184
e 2 10
e 2 12
e 2 16
e 2 20
e 2 23
e 2 27
e 2 34
e 2 41
e 2 51
e 2 69
e 2 77
e 2 80
e 2 89
e 2 93
e 2 94
e 2 95
e 2 97
e 2 108
e 2 115
e 2 123
e 2 126
e 2 127
e 2 128
e 2 146
e 2 155
e 2 156
e 2 163
e 2 173
e 2 191
e 2 193
e 2 194
e 2 197
e 3 4
e 3 6
e 3 19
e 3 25
e 3 33
e 3 40
e 3 42
e 3 44
e 3 45
e 3 58
e 3 67
e 3 68
e 3 71
e 3 76
e 3 91
e 3 92
e 3 102
e 3 104
e 3 110
e 3 114
e 3 132
e 3 133
e 3 138
e 3 153
e 3 160
e 3 169
e 3 170
e 3 177
e 3 178
e 3 179
e 3 183
e 3 184
e 4 19
e 4 22
e 4 38
e 4 40
e 4 42
e 4 44
e 4 45
e 4 56
e 4 58
e 4 61
e 4 62
e 4 67
e 4 71
e 4 72
e 4 73
e 4 85
e 4 91
e 4 92
e 4 101
e 4 102
e 4 104
e 4 107
e 4 110
e 4 124
e 4 133
e 4 138
e 4 153
e 4 170
e 4 177
e 4 178
e 4 179
e 4 180
e 5 7
e 5 17
e 5 37
e 5 49
e 5 54
e 5 55
e 5 57
e 5 60
e 5 66
e 5 74
e 5 79
e 5 81
e 5 90
e 5 98
e 5 99
e 5 112
e 5 118
e 5 119
e 5 120
e 5 121
e 5 129
e 5 135
e 5 140
e 5 143
e 5 147
e 5 158
e 5 166
e 5 168
e 5 172
e 5 176
e 5 186
e 5 200
e 6 19
e 6 21
e 6 25
e 6 33
e 6 40
e 6 42
e 6 44
e 6 47
e 6 52
e 6 58
e 6 59
e 6 68
e 6 76
e 6 102
e 6 103
e 6 105
e 6 106
e 6 114
e 6 116
e 6 132
e 6 153
e 6 159
e 6 160
e 6 169
e 6 170
e 6 174
e 6 178
e 6 183
e 6 184
e 6 195
e 7 17
e 7 18
e 7 35
e 7 37
e 7 49
e 7 55
e 7 64
e 7 74
e 7 79
e 7 81
e 7 88
e 7 90
e 7 98
e 7 99
e 7 112
e 7 113
e 7 118
e 7 119
e 7 120
e 7 122
e 7 130
e 7 140
e 7 141
e 7 143
e 7 145
e 7 166
e 7 168
e 7 172
e 7 175
e 7 176
e 7 196
e 8 9
e 8 11
e 8 15
e 8 26
e 8 28
e 8 30
e 8 32
e 8 43
e 8 48
e 8 50
e 8 65
e 8 75
e 8 78
e 8 82
e 8 83
e 8 86
e 8 87
e 8 96
e 8 100
e 8 125
e 8 142
e 8 150
e 8 152
e 8 154
e 8 157
e 8 162
e 8 164
e 8 181
e 8 185
e 8 188
e 8 189
e 8 190
e 9 11
e 9 15
e 9 26
e 9 28
e 9 30
e 9 32
e 9 43
e 9 48
e 9 50
e 9 65
e 9 75
e 9 78
e 9 82
e 9 83
e 9 86
e 9 87
e 9 96
e 9 100
e 9 125
e 9 142
e 9 150
e 9 152
e 9 154
e 9 157
e 9 162
e 9 164
e 9 181
e 9 185
e 9 188
e 9 189
e 9 190
e 10 12
e 10 16
e 10 20
e 10 23
e 10 27
e 10 34
e 10 41
e 10 51
e 10 69
e 10 77
e 10 80
e 10 89
e 10 93
e 10 94
e 10 95
e 10 97
e 10 108
e 10 115
e 10 123
e 10 126
e 10 127
e 10 128
e 10 146
e 10 155
e 10 156
e 10 163
e 10 173
e 10 191
e 10 193
e 10 194
e 10 197
e 11 15
e 11 28
e 11 32
e 11 36
e 11 43
e 11 48
e 11 50
e 11 53
e 11 65
e 11 70
e 11 78
e 11 83
e 11 84
e 11 96
e 11 109
e 11 134
e 11 139
e 11 142
e 11 150
e 11 152
e 11 157
e 11 161
e 11 162
e 11 164
e 11 167
e 11 171
e 11 181
e 11 185
e 11 188
e 11 192
e 12 16
e 12 20
e 12 23
e 12 27
e 12 34
e 12 41
e 12 51
e 12 69
e 12 77
e 12 80
e 12 89
e 12 93
e 12 94
e 12 95
e 12 97
e 12 108
e 12 115
e 12 123
e 12 126
e 12 127
e 12 128
e 12 146
e 12 155
e 12 156
e 12 163
e 12 173
e 12 191
e 12 193
e 12 194
e 12 197
e 13 26
e 13 30
e 13 39
e 13 46
e 13 54
e 13 57
e 13 60
e 13 63
e 13 66
e 13 75
e 13 82
e 13 86
e 13 87
e 13 100
e 13 117
e 13 121
e 13 125
e 13 129
e 13 135
e 13 136
e 13 147
e 13 148
e 13 154
e 13 158
e 13 165
e 13 182
e 13 186
e 13 189
e 13 190
e 13 198
e 13 199
e 13 200
e 14 16
e 14 22
e 14 24
e 14 29
e 14 31
e 14 34
e 14 38
e 14 56
e 14 61
e 14 62
e 14 72
e 14 73
e 14 85
e 14 89
e 14 95
e 14 97
e 14 101
e 14 107
e 14 108
e 14 111
e 14 123
e 14 124
e 14 126
e 14 131
e 14 137
e 14 144
e 14 146
e 14 149
e 14 151
e 14 156
e 14 180
e 14 187
e 14 193
e 15 26
e 15 28
e 15 30
e 15 32
e 15 43
e 15 48
e 15 50
e 15 65
e 15 75
e 15 78
e 15 82
e 15 83
e 15 86
e 15 87
e 15 96
e 15 100
e 15 125
e 15 142
e 15 150
e 15 152
e 15 154
e 15 157
e 15 162
e 15 164
e 15 181
e 15 185
e 15 188
e 15 189
e 15 190
e 16 24
e 16 27
e 16 29
e 16 31
e 16 34
e 16 80
e 16 89
e 16 94
e 16 95
e 16 97
e 16 108
e 16 111
e 16 115
e 16 123
e 16 126
e 16 127
e 16 131
e 16 137
e 16 144
e 16 146
e 16 149
e 16 151
e 16 155
e 16 156
e 16 187
e 16 191
e 16 193
e 16 194
e 17 37
e 17 49
e 17 54
e 17 55
e 17 57
e 17 60
e 17 66
e 17 74
e 17 79
e 17 81
e 17 90
e 17 98
e 17 99
e 17 112
e 17 118
e 17 119
e 17 120
e 17 121
e 17 129
e 17 135
e 17 140
e 17 143
e 17 147
e 17 158
e 17 166
e 17 168
e 17 172
e 17 176
e 17 186
e 17 200
e 18 20
e 18 23
e 18 35
e 18 37
e 18 41
e 18 51
e 18 55
e 18 64
e 18 69
e 18 77
e 18 79
e 18 81
e 18 88
e 18 93
e 18 98
e 18 99
e 18 113
e 18 120
e 18 122
e 18 128
e 18 130
e 18 141
e 18 145
e 18 163
e 18 166
e 18 172
e 18 173
e 18 175
e 18 176
e 18 196
e 18 197
e 19 25
e 19 33
e 19 40
e 19 42
e 19 44
e 19 45
e 19 58
e 19 67
e 19 68
e 19 71
e 19 76
e 19 91
e 19 92
e 19 102
e 19 104
e 19 110
e 19 114
e 19 132
e 19 133
e 19 138
e 19 153
e 19 160
e 19 169
e 19 170
e 19 177
e 19 178
e 19 179
e 19 183
e 19 184
e 20 23
e 20 27
e 20 35
e 20 41
e 20 51
e 20 64
e 20 69
e 20 77
e 20 80
e 20 88
e 20 93
e 20 94
e 20 113
e 20 115
e 20 122
e 20 127
e 20 128
e 20 130
e 20 141
e 20 145
e 20 155
e 20 163
e 20 173
e 20 175
e 20 191
e 20 194
e 20 196
e 20 197
e 21 25
e 21 33
e 21 36
e 21 47
e 21 52
e 21 53
e 21 59
e 21 68
e 21 70
e 21 76
e 21 84
e 21 103
e 21 105
e 21 106
e 21 109
e 21 114
e 21 116
e 21 132
e 21 134
e 21 139
e 21 159
e 21 160
e 21 161
e 21 167
e 21 169
e 21 171
e 21 174
e 21 183
e 21 184
e 21 192
e 21 195
e 22 24
e 22 29
e 22 31
e 22 38
e 22 45
e 22 56
e 22 61
e 22 62
e 22 67
e 22 71
e 22 72
e 22 73
e 22 85
e 22 91
e 22 92
e 22 101
e 22 104
e 22 107
e 22 110
e 22 111
e 22 124
e 22 131
e 22 133
e 22 137
e 22 138
e 22 144
e 22 149
e 22 151
e 22 177
e 22 179
e 22 180
e 22 187
e 23 27
e 23 35
e 23 41
e 23 51
e 23 64
e 23 69
e 23 77
e 23 80
e 23 88
e 23 93
e 23 94
e 23 113
e 23 115
e 23 122
e 23 127
e 23 128
e 23 130
e 23 141
e 23 145
e 23 155
e 23 163
e 23 173
e 23 175
e 23 191
e 23 194
e 23 196
e 23 197
e 24 29
e 24 31
e 24 34
e 24 38
e 24 56
e 24 61
e 24 62
e 24 72
e 24 73
e 24 85
e 24 89
e 24 95
e 24 97
e 24 101
e 24 107
e 24 108
e 24 111
e 24 123
e 24 124
e 24 126
e 24 131
e 24 137
e 24 144
e 24 146
e 24 149
e 24 151
e 24 156
e 24 180
e 24 187
e 24 193
e 25 33
e 25 40
e 25 42
e 25 44
e 25 47
e 25 52
e 25 58
e 25 59
e 25 68
e 25 76
e 25 102
e 25 103
e 25 105
e 25 106
e 25 114
e 25 116
e 25 132
e 25 153
e 25 159
e 25 160
e 25 169
e 25 170
e 25 174
e 25 178
e 25 183
e 25 184
e 25 195
e 26 30
e 26 32
e 26 39
e 26 43
e 26 46
e 26 48
e 26 63
e 26 65
e 26 75
e 26 82
e 26 86
e 26 87
e 26 100
e 26 117
e 26 125
e 26 136
e 26 142
e 26 148
e 26 150
e 26 152
e 26 154
e 26 157
e 26 165
e 26 182
e 26 189
e 26 190
e 26 198
e 26 199
e 27 34
e 27 41
e 27 51
e 27 69
e 27 77
e 27 80
e 27 89
e 27 93
e 27 94
e 27 95
e 27 97
e 27 108
e 27 115
e 27 123
e 27 126
e 27 127
e 27 128
e 27 146
e 27 155
e 27 156
e 27 163
e 27 173
e 27 191
e 27 193
e 27 194
e 27 197
e 28 32
e 28 36
e 28 43
e 28 48
e 28 50
e 28 53
e 28 65
e 28 70
e 28 78
e 28 83
e 28 84
e 28 96
e 28 109
e 28 134
e 28 139
e 28 142
e 28 150
e 28 152
e 28 157
e 28 161
e 28 162
e 28 164
e 28 167
e 28 171
e 28 181
e 28 185
e 28 188
e 28 192
e 29 31
e 29 34
e 29 38
e 29 56
e 29 61
e 29 62
e 29 72
e 29 73
e 29 85
e 29 89
e 29 95
e 29 97
e 29 101
e 29 107
e 29 108
e 29 111
e 29 123
e 29 124
e 29 126
e 29 131
e 29 137
e 29 144
e 29 146
e 29 149
e 29 151
e 29 156
e 29 180
e 29 187
e 29 193
e 30 32
e 30 39
e 30 43
e 30 46
e 30 48
e 30 63
e 30 65
e 30 75
e 30 82
e 30 86
e 30 87
e 30 100
e 30 117
e 30 125
e 30 136
e 30 142
e 30 148
e 30 150
e 30 152
e 30 154
e 30 157
e 30 165
e 30 182
e 30 189
e 30 190
e 30 198
e 30 199
e 31 34
e 31 38
e 31 56
e 31 61
e 31 62
e 31 72
e 31 73
e 31 85
e 31 89
e 31 95
e 31 97
e 31 101
e 31 107
e 31 108
e 31 111
e 31 123
e 31 124
e 31 126
e 31 131
e 31 137
e 31 144
e 31 146
e 31 149
e 31 151
e 31 156
e 31 180
e 31 187
e 31 193
e 32 43
e 32 48
e 32 50
e 32 65
e 32 75
e 32 78
e 32 82
e 32 83
e 32 86
e 32 87
e 32 96
e 32 100
e 32 125
e 32 142
e 32 150
e 32 152
e 32 154
e 32 157
e 32 162
e 32 164
e 32 181
e 32 185
e 32 188
e 32 189
e 32 190
e 33 40
e 33 42
e 33 44
e 33 47
e 33 52
e 33 58
e 33 59
e 33 68
e 33 76
e 33 102
e 33 103
e 33 105
e 33 106
e 33 114
e 33 116
e 33 132
e 33 153
e 33 159
e 33 160
e 33 169
e 33 170
e 33 174
e 33 178
e 33 183
e 33 184
e 33 195
e 34 80
e 34 89
e 34 94
e 34 95
e 34 97
e 34 108
e 34 111
e 34 115
e 34 123
e 34 126
e 34 127
e 34 131
e 34 137
e 34 144
e 34 146
e 34 149
e 34 151
e 34 155
e 34 156
e 34 187
e 34 191
e 34 193
e 34 194
e 35 37
e 35 41
e 35 51
e 35 55
e 35 64
e 35 69
e 35 77
e 35 79
e 35 81
e 35 88
e 35 93
e 35 98
e 35 99
e 35 113
e 35 120
e 35 122
e 35 128
e 35 130
e 35 141
e 35 145
e 35 163
e 35 166
e 35 172
e 35 173
e 35 175
e 35 176
e 35 196
e 35 197
e 36 47
e 36 50
e 36 52
e 36 53
e 36 59
e 36 70
e 36 78
e 36 83
e 36 84
e 36 96
e 36 103
e 36 105
e 36 106
e 36 109
e 36 116
e 36 134
e 36 139
e 36 159
e 36 161
e 36 162
e 36 164
e 36 167
e 36 171
e 36 174
e 36 181
e 36 185
e 36 188
e 36 192
e 36 195
e 37 49
e 37 55
e 37 64
e 37 74
e 37 79
e 37 81
e 37 88
e 37 90
e 37 98
e 37 99
e 37 112
e 37 113
e 37 118
e 37 119
e 37 120
e 37 122
e 37 130
e 37 140
e 37 141
e 37 143
e 37 145
e 37 166
e 37 168
e 37 172
e 37 175
e 37 176
e 37 196
e 38 45
e 38 56
e 38 61
e 38 62
e 38 67
e 38 71
e 38 72
e 38 73
e 38 85
e 38 91
e 38 92
e 38 101
e 38 104
e 38 107
e 38 110
e 38 111
e 38 124
e 38 131
e 38 133
e 38 137
e 38 138
e 38 144
e 38 149
e 38 151
e 38 177
e 38 179
e 38 180
e 38 187
e 39 46
e 39 54
e 39 57
e 39 60
e 39 63
e 39 66
e 39 75
e 39 82
e 39 86
e 39 87
e 39 100
e 39 117
e 39 121
e 39 125
e 39 129
e 39 135
e 39 136
e 39 147
e 39 148
e 39 154
e 39 158
e 39 165
e 39 182
e 39 186
e 39 189
e 39 190
e 39 198
e 39 199
e 39 200
e 40 42
e 40 44
e 40 45
e 40 58
e 40 67
e 40 68
e 40 71
e 40 76
e 40 91
e 40 92
e 40 102
e 40 104
e 40 110
e 40 114
e 40 132
e 40 133
e 40 138
e 40 153
e 40 160
e 40 169
e 40 170
e 40 177
e 40 178
e 40 179
e 40 183
e 40 184
e 41 51
e 41 64
e 41 69
e 41 77
e 41 80
e 41 88
e 41 93
e 41 94
e 41 113
e 41 115
e 41 122
e 41 127
e 41 128
e 41 130
e 41 141
e 41 145
e 41 155
e 41 163
e 41 173
e 41 175
e 41 191
e 41 194
e 41 196
e 41 197
e 42 44
e 42 45
e 42 58
e 42 67
e 42 68
e 42 71
e 42 76
e 42 91
e 42 92
e 42 102
e 42 104
e 42 110
e 42 114
e 42 132
e 42 133
e 42 138
e 42 153
e 42 160
e 42 169
e 42 170
e 42 177
e 42 178
e 42 179
e 42 183
e 42 184
e 43 48
e 43 50
e 43 65
e 43 75
e 43 78
e 43 82
e 43 83
e 43 86
e 43 87
e 43 96
e 43 100
e 43 125
e 43 142
e 43 150
e 43 152
e 43 154
e 43 157
e 43 162
e 43 164
e 43 181
e 43 185
e 43 188
e 43 189
e 43 190
e 44 45
e 44 58
e 44 67
e 44 68
e 44 71
e 44 76
e 44 91
e 44 92
e 44 102
e 44 104
e 44 110
e 44 114
e 44 132
e 44 133
e 44 138
e 44 153
e 44 160
e 44 169
e 44 170
e 44 177
e 44 178
e 44 179
e 44 183
e 44 184
e 45 56
e 45 58
e 45 61
e 45 62
e 45 67
e 45 71
e 45 72
e 45 73
e 45 85
e 45 91
e 45 92
e 45 101
e 45 102
e 45 104
e 45 107
e 45 110
e 45 124
e 45 133
e 45 138
e 45 153
e 45 170
e 45 177
e 45 178
e 45 179
e 45 180
e 46 54
e 46 57
e 46 60
e 46 63
e 46 66
e 46 75
e 46 82
e 46 86
e 46 87
e 46 100
e 46 117
e 46 121
e 46 125
e 46 129
e 46 135
e 46 136
e 46 147
e 46 148
e 46 154
e 46 158
e 46 165
e 46 182
e 46 186
e 46 189
e 46 190
e 46 198
e 46 199
e 46 200
e 47 52
e 47 53
e 47 59
e 47 68
e 47 70
e 47 76
e 47 84
e 47 103
e 47 105
e 47 106
e 47 109
e 47 114
e 47 116
e 47 132
e 47 134
e 47 139
e 47 159
e 47 160
e 47 161
e 47 167
e 47 169
e 47 171
e 47 174
e 47 183
e 47 184
e 47 192
e 47 195
e 48 50
e 48 65
e 48 75
e 48 78
e 48 82
e 48 83
e 48 86
e 48 87
e 48 96
e 48 100
e 48 125
e 48 142
e 48 150
e 48 152
e 48 154
e 48 157
e 48 162
e 48 164
e 48 181
e 48 185
e 48 188
e 48 189
e 48 190
e 49 54
e 49 55
e 49 57
e 49 60
e 49 66
e 49 74
e 49 79
e 49 81
e 49 90
e 49 98
e 49 99
e 49 112
e 49 118
e 49 119
e 49 120
e 49 121
e 49 129
e 49 135
e 49 140
e 49 143
e 49 147
e 49 158
e 49 166
e 49 168
e 49 172
e 49 176
e 49 186
e 49 200
e 50 53
e 50 65
e 50 70
e 50 78
e 50 83
e 50 84
e 50 96
e 50 109
e 50 134
e 50 139
e 50 142
e 50 150
e 50 152
e 50 157
e 50 161
e 50 162
e 50 164
e 50 167
e 50 171
e 50 181
e 50 185
e 50 188
e 50 192
e 51 64
e 51 69
e 51 77
e 51 80
e 51 88
e 51 93
e 51 94
e 51 113
e 51 115
e 51 122
e 51 127
e 51 128
e 51 130
e 51 141
e 51 145
e 51 155
e 51 163
e 51 173
e 51 175
e 51 191
e 51 194
e 51 196
e 51 197
e 52 53
e 52 59
e 52 68
e 52 70
e 52 76
e 52 84
e 52 103
e 52 105
e 52 106
e 52 109
e 52 114
e 52 116
e 52 132
e 52 134
e 52 139
e 52 159
e 52 160
e 52 161
e 52 167
e 52 169
e 52 171
e 52 174
e 52 183
e 52 184
e 52 192
e 52 195
e 53 59
e 53 70
e 53 78
e 53 83
e 53 84
e 53 96
e 53 103
e 53 105
e 53 106
e 53 109
e 53 116
e 53 134
e 53 139
e 53 159
e 53 161
e 53 162
e 53 164
e 53 167
e 53 171
e 53 174
e 53 181
e 53 185
e 53 188
e 53 192
e 53 195
e 54 57
e 54 60
e 54 63
e 54 66
e 54 74
e 54 90
e 54 112
e 54 117
e 54 118
e 54 119
e 54 121
e 54 129
e 54 135
e 54 136
e 54 140
e 54 143
e 54 147
e 54 148
e 54 158
e 54 165
e 54 168
e 54 182
e 54 186
e 54 198
e 54 199
e 54 200
e 55 64
e 55 74
e 55 79
e 55 81
e 55 88
e 55 90
e 55 98
e 55 99
e 55 112
e 55 113
e 55 118
e 55 119
e 55 120
e 55 122
e 55 130
e 55 140
e 55 141
e 55 143
e 55 145
e 55 166
e 55 168
e 55 172
e 55 175
e 55 176
e 55 196
e 56 61
e 56 62
e 56 67
e 56 71
e 56 72
e 56 73
e 56 85
e 56 91
e 56 92
e 56 101
e 56 104
e 56 107
e 56 110
e 56 111
e 56 124
e 56 131
e 56 133
e 56 137
e 56 138
e 56 144
e 56 149
e 56 151
e 56 177
e 56 179
e 56 180
e 56 187
e 57 60
e 57 63
e 57 66
e 57 74
e 57 90
e 57 112
e 57 117
e 57 118
e 57 119
e 57 121
e 57 129
e 57 135
e 57 136
e 57 140
e 57 143
e 57 147
e 57 148
e 57 158
e 57 165
e 57 168
e 57 182
e 57 186
e 57 198
e 57 199
e 57 200
e 58 67
e 58 68
e 58 71
e 58 76
e 58 91
e 58 92
e 58 102
e 58 104
e 58 110
e 58 114
e 58 132
e 58 133
e 58 138
e 58 153
e 58 160
e 58 169
e 58 170
e 58 177
e 58 178
e 58 179
e 58 183
e 58 184
e 59 68
e 59 70
e 59 76
e 59 84
e 59 103
e 59 105
e 59 106
e 59 109
e 59 114
e 59 116
e 59 132
e 59 134
e 59 139
e 59 159
e 59 160
e 59 161
e 59 167
e 59 169
e 59 171
e 59 174
e 59 183
e 59 184
e 59 192
e 59 195
e 60 63
e 60 66
e 60 74
e 60 90
e 60 112
e 60 117
e 60 118
e 60 119
e 60 121
e 60 129
e 60 135
e 60 136
e 60 140
e 60 143
e 60 147
e 60 148
e 60 158
e 60 165
e 60 168
e 60 182
e 60 186
e 60 198
e 60 199
e 60 200
e 61 62
e 61 67
e 61 71
e 61 72
e 61 73
e 61 85
e 61 91
e 61 92
e 61 101
e 61 104
e 61 107
e 61 110
e 61 111
e 61 124
e 61 131
e 61 133
e 61 137
e 61 138
e 61 144
e 61 149
e 61 151
e 61 177
e 61 179
e 61 180
e 61 187
e 62 67
e 62 71
e 62 72
e 62 73
e 62 85
e 62 91
e 62 92
e 62 101
e 62 104
e 62 107
e 62 110
e 62 111
e 62 124
e 62 131
e 62 133
e 62 137
e 62 138
e 62 144
e 62 149
e 62 151
e 62 177
e 62 179
e 62 180
e 62 187
e 63 66
e 63 75
e 63 82
e 63 86
e 63 87
e 63 100
e 63 117
e 63 121
e 63 125
e 63 129
e 63 135
e 63 136
e 63 147
e 63 148
e 63 154
e 63 158
e 63 165
e 63 182
e 63 186
e 63 189
e 63 190
e 63 198
e 63 199
e 63 200
e 64 69
e 64 77
e 64 79
e 64 81
e 64 88
e 64 93
e 64 98
e 64 99
e 64 113
e 64 120
e 64 122
e 64 128
e 64 130
e 64 141
e 64 145
e 64 163
e 64 166
e 64 172
e 64 173
e 64 175
e 64 176
e 64 196
e 64 197
e 65 75
e 65 78
e 65 82
e 65 83
e 65 86
e 65 87
e 65 96
e 65 100
e 65 125
e 65 142
e 65 150
e 65 152
e 65 154
e 65 157
e 65 162
e 65 164
e 65 181
e 65 185
e 65 188
e 65 189
e 65 190
e 66 74
e 66 90
e 66 112
e 66 117
e 66 118
e 66 119
e 66 121
e 66 129
e 66 135
e 66 136
e 66 140
e 66 143
e 66 147
e 66 148
e 66 158
e 66 165
e 66 168
e 66 182
e 66 186
e 66 198
e 66 199
e 66 200
e 67 71
e 67 72
e 67 73
e 67 85
e 67 91
e 67 92
e 67 101
e 67 102
e 67 104
e 67 107
e 67 110
e 67 124
e 67 133
e 67 138
e 67 153
e 67 170
e 67 177
e 67 178
e 67 179
e 67 180
e 68 76
e 68 102
e 68 103
e 68 105
e 68 106
e 68 114
e 68 116
e 68 132
e 68 153
e 68 159
e 68 160
e 68 169
e 68 170
e 68 174
e 68 178
e 68 183
e 68 184
e 68 195
e 69 77
e 69 80
e 69 88
e 69 93
e 69 94
e 69 113
e 69 115
e 69 122
e 69 127
e 69 128
e 69 130
e 69 141
e 69 145
e 69 155
e 69 163
e 69 173
e 69 175
e 69 191
e 69 194
e 69 196
e 69 197
e 70 78
e 70 83
e 70 84
e 70 96
e 70 103
e 70 105
e 70 106
e 70 109
e 70 116
e 70 134
e 70 139
e 70 159
e 70 161
e 70 162
e 70 164
e 70 167
e 70 171
e 70 174
e 70 181
e 70 185
e 70 188
e 70 192
e 70 195
e 71 72
e 71 73
e 71 85
e 71 91
e 71 92
e 71 101
e 71 102
e 71 104
e 71 107
e 71 110
e 71 124
e 71 133
e 71 138
e 71 153
e 71 170
e 71 177
e 71 178
e 71 179
e 71 180
e 72 73
e 72 85
e 72 91
e 72 92
e 72 101
e 72 104
e 72 107
e 72 110
e 72 111
e 72 124
e 72 131
e 72 133
e 72 137
e 72 138
e 72 144
e 72 149
e 72 151
e 72 177
e 72 179
e 72 180
e 72 187
e 73 85
e 73 91
e 73 92
e 73 101
e 73 104
e 73 107
e 73 110
e 73 111
e 73 124
e 73 131
e 73 133
e 73 137
e 73 138
e 73 144
e 73 149
e 73 151
e 73 177
e 73 179
e 73 180
e 73 187
e 74 79
e 74 81
e 74 90
e 74 98
e 74 99
e 74 112
e 74 118
e 74 119
e 74 120
e 74 121
e 74 129
e 74 135
e 74 140
e 74 143
e 74 147
e 74 158
e 74 166
e 74 168
e 74 172
e 74 176
e 74 186
e 74 200
e 75 82
e 75 86
e 75 87
e 75 100
e 75 117
e 75 125
e 75 136
e 75 142
e 75 148
e 75 150
e 75 152
e 75 154
e 75 157
e 75 165
e 75 182
e 75 189
e 75 190
e 75 198
e 75 199
e 76 102
e 76 103
e 76 105
e 76 106
e 76 114
e 76 116
e 76 132
e 76 153
e 76 159
e 76 160
e 76 169
e 76 170
e 76 174
e 76 178
e 76 183
e 76 184
e 76 195
e 77 80
e 77 88
e 77 93
e 77 94
e 77 113
e 77 115
e 77 122
e 77 127
e 77 128
e 77 130
e 77 141
e 77 145
e 77 155
e 77 163
e 77 173
e 77 175
e 77 191
e 77 194
e 77 196
e 77 197
e 78 83
e 78 84
e 78 96
e 78 109
e 78 134
e 78 139
e 78 142
e 78 150
e 78 152
e 78 157
e 78 161
e 78 162
e 78 164
e 78 167
e 78 171
e 78 181
e 78 185
e 78 188
e 78 192
e 79 81
e 79 88
e 79 90
e 79 98
e 79 99
e 79 112
e 79 113
e 79 118
e 79 119
e 79 120
e 79 122
e 79 130
e 79 140
e 79 141
e 79 143
e 79 145
e 79 166
e 79 168
e 79 172
e 79 175
e 79 176
e 79 196
e 80 89
e 80 93
e 80 94
e 80 95
e 80 97
e 80 108
e 80 115
e 80 123
e 80 126
e 80 127
e 80 128
e 80 146
e 80 155
e 80 156
e 80 163
e 80 173
e 80 191
e 80 193
e 80 194
e 80 197
e 81 88
e 81 90
e 81 98
e 81 99
e 81 112
e 81 113
e 81 118
e 81 119
e 81 120
e 81 122
e 81 130
e 81 140
e 81 141
e 81 143
e 81 145
e 81 166
e 81 168
e 81 172
e 81 175
e 81 176
e 81 196
e 82 86
e 82 87
e 82 100
e 82 117
e 82 125
e 82 136
e 82 142
e 82 148
e 82 150
e 82 152
e 82 154
e 82 157
e 82 165
e 82 182
e 82 189
e 82 190
e 82 198
e 82 199
e 83 84
e 83 96
e 83 109
e 83 134
e 83 139
e 83 142
e 83 150
e 83 152
e 83 157
e 83 161
e 83 162
e 83 164
e 83 167
e 83 171
e 83 181
e 83 185
e 83 188
e 83 192
e 84 96
e 84 103
e 84 105
e 84 106
e 84 109
e 84 116
e 84 134
e 84 139
e 84 159
e 84 161
e 84 162
e 84 164
e 84 167
e 84 171
e 84 174
e 84 181
e 84 185
e 84 188
e 84 192
e 84 195
e 85 91
e 85 92
e 85 101
e 85 104
e 85 107
e 85 110
e 85 111
e 85 124
e 85 131
e 85 133
e 85 137
e 85 138
e 85 144
e 85 149
e 85 151
e 85 177
e 85 179
e 85 180
e 85 187
e 86 87
e 86 100
e 86 117
e 86 125
e 86 136
e 86 142
e 86 148
e 86 150
e 86 152
e 86 154
e 86 157
e 86 165
e 86 182
e 86 189
e 86 190
e 86 198
e 86 199
e 87 100
e 87 117
e 87 125
e 87 136
e 87 142
e 87 148
e 87 150
e 87 152
e 87 154
e 87 157
e 87 165
e 87 182
e 87 189
e 87 190
e 87 198
e 87 199
e 88 93
e 88 98
e 88 99
e 88 113
e 88 120
e 88 122
e 88 128
e 88 130
e 88 141
e 88 145
e 88 163
e 88 166
e 88 172
e 88 173
e 88 175
e 88 176
e 88 196
e 88 197
e 89 94
e 89 95
e 89 97
e 89 108
e 89 111
e 89 115
e 89 123
e 89 126
e 89 127
e 89 131
e 89 137
e 89 144
e 89 146
e 89 149
e 89 151
e 89 155
e 89 156
e 89 187
e 89 191
e 89 193
e 89 194
e 90 98
e 90 99
e 90 112
e 90 118
e 90 119
e 90 120
e 90 121
e 90 129
e 90 135
e 90 140
e 90 143
e 90 147
e 90 158
e 90 166
e 90 168
e 90 172
e 90 176
e 90 186
e 90 200
e 91 92
e 91 101
e 91 102
e 91 104
e 91 107
e 91 110
e 91 124
e 91 133
e 91 138
e 91 153
e 91 170
e 91 177
e 91 178
e 91 179
e 91 180
e 92 101
e 92 102
e 92 104
e 92 107
e 92 110
e 92 124
e 92 133
e 92 138
e 92 153
e 92 170
e 92 177
e 92 178
e 92 179
e 92 180
e 93 94
e 93 113
e 93 115
e 93 122
e 93 127
e 93 128
e 93 130
e 93 141
e 93 145
e 93 155
e 93 163
e 93 173
e 93 175
e 93 191
e 93 194
e 93 196
e 93 197
e 94 95
e 94 97
e 94 108
e 94 115
e 94 123
e 94 126
e 94 127
e 94 128
e 94 146
e 94 155
e 94 156
e 94 163
e 94 173
e 94 191
e 94 193
e 94 194
e 94 197
e 95 97
e 95 108
e 95 111
e 95 115
e 95 123
e 95 126
e 95 127
e 95 131
e 95 137
e 95 144
e 95 146
e 95 149
e 95 151
e 95 155
e 95 156
e 95 187
e 95 191
e 95 193
e 95 194
e 96 109
e 96 134
e 96 139
e 96 142
e 96 150
e 96 152
e 96 157
e 96 161
e 96 162
e 96 164
e 96 167
e 96 171
e 96 181
e 96 185
e 96 188
e 96 192
e 97 108
e 97 111
e 97 115
e 97 123
e 97 126
e 97 127
e 97 131
e 97 137
e 97 144
e 97 146
e 97 149
e 97 151
e 97 155
e 97 156
e 97 187
e 97 191
e 97 193
e 97 194
e 98 99
e 98 112
e 98 113
e 98 118
e 98 119
e 98 120
e 98 122
e 98 130
e 98 140
e 98 141
e 98 143
e 98 145
e 98 166
e 98 168
e 98 172
e 98 175
e 98 176
e 98 196
e 99 112
e 99 113
e 99 118
e 99 119
e 99 120
e 99 122
e 99 130
e 99 140
e 99 141
e 99 143
e 99 145
e 99 166
e 99 168
e 99 172
e 99 175
e 99 176
e 99 196
e 100 117
e 100 125
e 100 136
e 100 142
e 100 148
e 100 150
e 100 152
e 100 154
e 100 157
e 100 165
e 100 182
e 100 189
e 100 190
e 100 198
e 100 199
e 101 104
e 101 107
e 101 110
e 101 111
e 101 124
e 101 131
e 101 133
e 101 137
e 101 138
e 101 144
e 101 149
e 101 151
e 101 177
e 101 179
e 101 180
e 101 187
e 102 104
e 102 110
e 102 114
e 102 132
e 102 133
e 102 138
e 102 153
e 102 160
e 102 169
e 102 170
e 102 177
e 102 178
e 102 179
e 102 183
e 102 184
e 103 105
e 103 106
e 103 109
e 103 114
e 103 116
e 103 132
e 103 134
e 103 139
e 103 159
e 103 160
e 103 161
e 103 167
e 103 169
e 103 171
e 103 174
e 103 183
e 103 184
e 103 192
e 103 195
e 104 107
e 104 110
e 104 124
e 104 133
e 104 138
e 104 153
e 104 170
e 104 177
e 104 178
e 104 179
e 104 180
e 105 106
e 105 109
e 105 114
e 105 116
e 105 132
e 105 134
e 105 139
e 105 159
e 105 160
e 105 161
e 105 167
e 105 169
e 105 171
e 105 174
e 105 183
e 105 184
e 105 192
e 105 195
e 106 109
e 106 114
e 106 116
e 106 132
e 106 134
e 106 139
e 106 159
e 106 160
e 106 161
e 106 167
e 106 169
e 106 171
e 106 174
e 106 183
e 106 184
e 106 192
e 106 195
e 107 110
e 107 111
e 107 124
e 107 131
e 107 133
e 107 137
e 107 138
e 107 144
e 107 149
e 107 151
e 107 177
e 107 179
e 107 180
e 107 187
e 108 111
e 108 115
e 108 123
e 108 126
e 108 127
e 108 131
e 108 137
e 108 144
e 108 146
e 108 149
e 108 151
e 108 155
e 108 156
e 108 187
e 108 191
e 108 193
e 108 194
e 109 116
e 109 134
e 109 139
e 109 159
e 109 161
e 109 162
e 109 164
e 109 167
e 109 171
e 109 174
e 109 181
e 109 185
e 109 188
e 109 192
e 109 195
e 110 124
e 110 133
e 110 138
e 110 153
e 110 170
e 110 177
e 110 178
e 110 179
e 110 180
e 111 123
e 111 124
e 111 126
e 111 131
e 111 137
e 111 144
e 111 146
e 111 149
e 111 151
e 111 156
e 111 180
e 111 187
e 111 193
e 112 118
e 112 119
e 112 120
e 112 121
e 112 129
e 112 135
e 112 140
e 112 143
e 112 147
e 112 158
e 112 166
e 112 168
e 112 172
e 112 176
e 112 186
e 112 200
e 113 120
e 113 122
e 113 128
e 113 130
e 113 141
e 113 145
e 113 163
e 113 166
e 113 172
e 113 173
e 113 175
e 113 176
e 113 196
e 113 197
e 114 116
e 114 132
e 114 153
e 114 159
e 114 160
e 114 169
e 114 170
e 114 174
e 114 178
e 114 183
e 114 184
e 114 195
e 115 123
e 115 126
e 115 127
e 115 128
e 115 146
e 115 155
e 115 156
e 115 163
e 115 173
e 115 191
e 115 193
e 115 194
e 115 197
e 116 132
e 116 134
e 116 139
e 116 159
e 116 160
e 116 161
e 116 167
e 116 169
e 116 171
e 116 174
e 116 183
e 116 184
e 116 192
e 116 195
e 117 121
e 117 125
e 117 129
e 117 135
e 117 136
e 117 147
e 117 148
e 117 154
e 117 158
e 117 165
e 117 182
e 117 186
e 117 189
e 117 190
e 117 198
e 117 199
e 117 200
e 118 119
e 118 120
e 118 121
e 118 129
e 118 135
e 118 140
e 118 143
e 118 147
e 118 158
e 118 166
e 118 168
e 118 172
e 118 176
e 118 186
e 118 200
e 119 120
e 119 121
e 119 129
e 119 135
e 119 140
e 119 143
e 119 147
e 119 158
e 119 166
e 119 168
e 119 172
e 119 176
e 119 186
e 119 200
e 120 122
e 120 130
e 120 140
e 120 141
e 120 143
e 120 145
e 120 166
e 120 168
e 120 172
e 120 175
e 120 176
e 120 196
e 121 129
e 121 135
e 121 136
e 121 140
e 121 143
e 121 147
e 121 148
e 121 158
e 121 165
e 121 168
e 121 182
e 121 186
e 121 198
e 121 199
e 121 200
e 122 128
e 122 130
e 122 141
e 122 145
e 122 163
e 122 166
e 122 172
e 122 173
e 122 175
e 122 176
e 122 196
e 122 197
e 123 126
e 123 127
e 123 131
e 123 137
e 123 144
e 123 146
e 123 149
e 123 151
e 123 155
e 123 156
e 123 187
e 123 191
e 123 193
e 123 194
e 124 131
e 124 133
e 124 137
e 124 138
e 124 144
e 124 149
e 124 151
e 124 177
e 124 179
e 124 180
e 124 187
e 125 136
e 125 142
e 125 148
e 125 150
e 125 152
e 125 154
e 125 157
e 125 165
e 125 182
e 125 189
e 125 190
e 125 198
e 125 199
e 126 127
e 126 131
e 126 137
e 126 144
e 126 146
e 126 149
e 126 151
e 126 155
e 126 156
e 126 187
e 126 191
e 126 193
e 126 194
e 127 128
e 127 146
e 127 155
e 127 156
e 127 163
e 127 173
e 127 191
e 127 193
e 127 194
e 127 197
e 128 130
e 128 141
e 128 145
e 128 155
e 128 163
e 128 173
e 128 175
e 128 191
e 128 194
e 128 196
e 128 197
e 129 135
e 129 136
e 129 140
e 129 143
e 129 147
e 129 148
e 129 158
e 129 165
e 129 168
e 129 182
e 129 186
e 129 198
e 129 199
e 129 200
e 130 141
e 130 145
e 130 163
e 130 166
e 130 172
e 130 173
e 130 175
e 130 176
e 130 196
e 130 197
e 131 137
e 131 144
e 131 146
e 131 149
e 131 151
e 131 156
e 131 180
e 131 187
e 131 193
e 132 153
e 132 159
e 132 160
e 132 169
e 132 170
e 132 174
e 132 178
e 132 183
e 132 184
e 132 195
e 133 138
e 133 153
e 133 170
e 133 177
e 133 178
e 133 179
e 133 180
e 134 139
e 134 159
e 134 161
e 134 162
e 134 164
e 134 167
e 134 171
e 134 174
e 134 181
e 134 185
e 134 188
e 134 192
e 134 195
e 135 136
e 135 140
e 135 143
e 135 147
e 135 148
e 135 158
e 135 165
e 135 168
e 135 182
e 135 186
e 135 198
e 135 199
e 135 200
e 136 147
e 136 148
e 136 154
e 136 158
e 136 165
e 136 182
e 136 186
e 136 189
e 136 190
e 136 198
e 136 199
e 136 200
e 137 144
e 137 146
e 137 149
e 137 151
e 137 156
e 137 180
e 137 187
e 137 193
e 138 153
e 138 170
e 138 177
e 138 178
e 138 179
e 138 180
e 139 159
e 139 161
e 139 162
e 139 164
e 139 167
e 139 171
e 139 174
e 139 181
e 139 185
e 139 188
e 139 192
e 139 195
e 140 143
e 140 147
e 140 158
e 140 166
e 140 168
e 140 172
e 140 176
e 140 186
e 140 200
e 141 145
e 141 163
e 141 166
e 141 172
e 141 173
e 141 175
e 141 176
e 141 196
e 141 197
e 142 150
e 142 152
e 142 154
e 142 157
e 142 162
e 142 164
e 142 181
e 142 185
e 142 188
e 142 189
e 142 190
e 143 147
e 143 158
e 143 166
e 143 168
e 143 172
e 143 176
e 143 186
e 143 200
e 144 146
e 144 149
e 144 151
e 144 156
e 144 180
e 144 187
e 144 193
e 145 163
e 145 166
e 145 172
e 145 173
e 145 175
e 145 176
e 145 196
e 145 197
e 146 149
e 146 151
e 146 155
e 146 156
e 146 187
e 146 191
e 146 193
e 146 194
e 147 148
e 147 158
e 147 165
e 147 168
e 147 182
e 147 186
e 147 198
e 147 199
e 147 200
e 148 154
e 148 158
e 148 165
e 148 182
e 148 186
e 148 189
e 148 190
e 148 198
e 148 199
e 148 200
e 149 151
e 149 156
e 149 180
e 149 187
e 149 193
e 150 152
e 150 154
e 150 157
e 150 162
e 150 164
e 150 181
e 150 185
e 150 188
e 150 189
e 150 190
e 151 156
e 151 180
e 151 187
e 151 193
e 152 154
e 152 157
e 152 162
e 152 164
e 152 181
e 152 185
e 152 188
e 152 189
e 152 190
e 153 160
e 153 169
e 153 170
e 153 177
e 153 178
e 153 179
e 153 183
e 153 184
e 154 157
e 154 165
e 154 182
e 154 189
e 154 190
e 154 198
e 154 199
e 155 156
e 155 163
e 155 173
e 155 191
e 155 193
e 155 194
e 155 197
e 156 187
e 156 191
e 156 193
e 156 194
e 157 162
e 157 164
e 157 181
e 157 185
e 157 188
e 157 189
e 157 190
e 158 165
e 158 168
e 158 182
e 158 186
e 158 198
e 158 199
e 158 200
e 159 160
e 159 161
e 159 167
e 159 169
e 159 171
e 159 174
e 159 183
e 159 184
e 159 192
e 159 195
e 160 169
e 160 170
e 160 174
e 160 178
e 160 183
e 160 184
e 160 195
e 161 162
e 161 164
e 161 167
e 161 171
e 161 174
e 161 181
e 161 185
e 161 188
e 161 192
e 161 195
e 162 164
e 162 167
e 162 171
e 162 181
e 162 185
e 162 188
e 162 192
e 163 173
e 163 175
e 163 191
e 163 194
e 163 196
e 163 197
e 164 167
e 164 171
e 164 181
e 164 185
e 164 188
e 164 192
e 165 182
e 165 186
e 165 189
e 165 190
e 165 198
e 165 199
e 165 200
e 166 168
e 166 172
e 166 175
e 166 176
e 166 196
e 167 171
e 167 174
e 167 181
e 167 185
e 167 188
e 167 192
e 167 195
e 168 172
e 168 176
e 168 186
e 168 200
e 169 170
e 169 174
e 169 178
e 169 183
e 169 184
e 169 195
e 170 177
e 170 178
e 170 179
e 170 183
e 170 184
e 171 174
e 171 181
e 171 185
e 171 188
e 171 192
e 171 195
e 172 175
e 172 176
e 172 196
e 173 175
e 173 191
e 173 194
e 173 196
e 173 197
e 174 183
e 174 184
e 174 192
e 174 195
e 175 176
e 175 196
e 175 197
e 176 196
e 177 178
e 177 179
e 177 180
e 178 179
e 178 183
e 178 184
e 179 180
e 180 187
e 181 185
e 181 188
e 181 192
e 182 186
e 182 189
e 182 190
e 182 198
e 182 199
e 182 200
e 183 184
e 183 195
e 184 195
e 185 188
e 185 192
e 186 198
e 186 199
e 186 200
e 187 193
e 188 192
e 189 190
e 189 198
e 189 199
e 190 198
e 190 199
e 191 193
e 191 194
e 191 197
e 192 195
e 193 194
e 194 197
e 196 197
e 198 199
e 198 200
e 199 200
